Total weight: 975.7
Route 1: 0 27 52 82 62 88 31 10 69 76 12 21 72 75 23 15 42 14 38 86 44 98 92 97 6 89 18 7 48 8 60 93 37 100 43 74 56 4 25 55 54 24 80 68 0 
Route 2: 0 28 39 67 29 34 71 9 81 79 33 51 30 63 64 49 36 46 17 61 16 91 85 59 96 94 13 58 26 53 0 
Route 3: 0 40 73 22 41 57 2 87 95 99 5 84 83 45 47 19 11 90 32 20 66 65 35 78 3 77 50 1 70 0 
